50
    1    84    98
    2   376   323
    3   387   365
    4   414   354
    5   517   535
    6    93    64
    7   553   560
    8   205   154
    9    26    56
   10   542   489
   11   433   438
   12   155   202
   13   532   591
   14     1    51
   15    43    47
   16   270   243
   17   644   584
   18   562   543
   19    32    68
   20   368   421
   21   487   488
   22   509   518
   23   359   399
   24   191   213
   25   222   175
   26   270   287
   27   195   189
   28   417   470
   29   238   208
   30   450   422
   31   156   124
   32   206   162
   33   192   214
   34   319   340
   35   391   415
   36   142   184
   37   550   583
   38   516   547
   39   340   383
   40   232   253
   41   139   122
   42   393   352
   43   621   577
   44   488   516
   45   119   130
   46   384   329
   47    75    28
   48   410   448
   49    75    50
   50   244   223
601
